22	3	3
3	3	5	51	35	59	
0	0	0	0	8	4	4	4	3	6	20	2	3	4	5	6	7	8	9	10	11	12	13	14	15	16	17	18	19	20	21
1	1	0	2	1	10	5	9	7	5	1	22
5	1	0	2	5	3	3	3	6	4	3	22	5	4
2	1	1	0	2	8	5	5	2	9	4	22	16	5	7
2	0	1	2	2	3	2	1	10	3	1	22
4	0	1	1	9	7	7	2	1	10	2	22	7
1	0	1	2	8	2	9	3	10	6	1	22
2	0	0	0	7	5	9	9	8	5	2	22	9
5	0	1	1	2	9	2	7	4	4	1	22
2	1	1	2	6	5	7	8	5	6	3	22	19	14
2	1	1	0	1	3	2	7	5	3	2	22	12
5	0	1	2	7	3	4	6	5	4	2	22	13
2	0	0	1	1	1	9	9	10	6	1	22
3	1	1	1	3	2	4	5	9	7	2	22	16
2	1	1	0	8	4	2	5	2	7	2	22	21
1	0	1	0	10	2	9	2	9	4	1	22
2	0	1	1	4	5	6	8	10	10	1	22
3	1	0	2	1	1	1	9	9	1	1	22
5	0	1	2	5	2	3	8	7	1	1	22
2	0	1	2	5	5	5	7	9	6	1	22
1	0	1	1	3	9	7	1	10	5	1	22
0	0	0	0	4	4	10	10	2	10	0
